c Command line: hgen8 220 10
p cnf 220 342
56 23 143 51 0
215 44 27 121 0
38 158 60 193 0
187 182 86 157 0
93 191 48 151 0
77 46 91 101 0
206 25 199 147 0
104 129 181 200 0
74 69 195 204 0
130 99 163 185 0
52 154 172 87 0
14 103 186 34 0
50 119 138 16 0
63 94 6 49 0
190 120 159 58 0
137 73 85 184 0
210 4 132 106 0
102 207 203 107 0
33 67 141 105 0
209 41 166 168 0
211 36 189 70 0
21 164 72 133 0
202 111 10 149 0
140 89 57 42 0
197 2 80 192 0
115 47 3 45 0
165 76 173 217 0
113 79 22 83 0
150 124 5 75 0
68 174 24 212 0
118 95 196 20 0
216 17 148 71 0
40 161 1 12 0
116 179 123 92 0
65 160 214 170 0
30 139 84 146 0
90 125 13 183 0
114 97 35 167 0
194 126 108 81 0
145 19 171 220 0
66 109 175 142 0
155 98 127 61 0
78 117 96 176 0
169 39 43 219 0
122 180 62 198 0
-1 -2 0
-1 -3 0
-1 -4 0
-1 -5 0
-2 -3 0
-2 -4 0
-2 -5 0
-3 -4 0
-3 -5 0
-4 -5 0
-6 -10 0
-12 -13 0
-12 -14 0
-13 -14 0
-16 -17 0
-16 -19 0
-16 -20 0
-17 -19 0
-17 -20 0
-19 -20 0
-21 -22 0
-21 -23 0
-21 -24 0
-21 -25 0
-22 -23 0
-22 -24 0
-22 -25 0
-23 -24 0
-23 -25 0
-24 -25 0
-27 -30 0
-33 -34 0
-33 -35 0
-34 -35 0
-36 -38 0
-36 -39 0
-36 -40 0
-38 -39 0
-38 -40 0
-39 -40 0
-41 -42 0
-41 -43 0
-41 -44 0
-41 -45 0
-42 -43 0
-42 -44 0
-42 -45 0
-43 -44 0
-43 -45 0
-44 -45 0
-46 -47 0
-46 -48 0
-46 -49 0
-46 -50 0
-47 -48 0
-47 -49 0
-47 -50 0
-48 -49 0
-48 -50 0
-49 -50 0
-51 -52 0
-56 -57 0
-56 -58 0
-56 -60 0
-57 -58 0
-57 -60 0
-58 -60 0
-61 -62 0
-61 -63 0
-61 -65 0
-62 -63 0
-62 -65 0
-63 -65 0
-66 -67 0
-66 -68 0
-66 -69 0
-66 -70 0
-67 -68 0
-67 -69 0
-67 -70 0
-68 -69 0
-68 -70 0
-69 -70 0
-71 -72 0
-71 -73 0
-71 -74 0
-71 -75 0
-72 -73 0
-72 -74 0
-72 -75 0
-73 -74 0
-73 -75 0
-74 -75 0
-76 -77 0
-76 -78 0
-76 -79 0
-76 -80 0
-77 -78 0
-77 -79 0
-77 -80 0
-78 -79 0
-78 -80 0
-79 -80 0
-81 -83 0
-81 -84 0
-81 -85 0
-83 -84 0
-83 -85 0
-84 -85 0
-86 -87 0
-86 -89 0
-86 -90 0
-87 -89 0
-87 -90 0
-89 -90 0
-91 -92 0
-91 -93 0
-91 -94 0
-91 -95 0
-92 -93 0
-92 -94 0
-92 -95 0
-93 -94 0
-93 -95 0
-94 -95 0
-96 -97 0
-96 -98 0
-96 -99 0
-97 -98 0
-97 -99 0
-98 -99 0
-101 -102 0
-101 -103 0
-101 -104 0
-101 -105 0
-102 -103 0
-102 -104 0
-102 -105 0
-103 -104 0
-103 -105 0
-104 -105 0
-106 -107 0
-106 -108 0
-106 -109 0
-107 -108 0
-107 -109 0
-108 -109 0
-111 -113 0
-111 -114 0
-111 -115 0
-113 -114 0
-113 -115 0
-114 -115 0
-116 -117 0
-116 -118 0
-116 -119 0
-116 -120 0
-117 -118 0
-117 -119 0
-117 -120 0
-118 -119 0
-118 -120 0
-119 -120 0
-121 -122 0
-121 -123 0
-121 -124 0
-121 -125 0
-122 -123 0
-122 -124 0
-122 -125 0
-123 -124 0
-123 -125 0
-124 -125 0
-126 -127 0
-126 -129 0
-126 -130 0
-127 -129 0
-127 -130 0
-129 -130 0
-132 -133 0
-137 -138 0
-137 -139 0
-137 -140 0
-138 -139 0
-138 -140 0
-139 -140 0
-141 -142 0
-141 -143 0
-141 -145 0
-142 -143 0
-142 -145 0
-143 -145 0
-146 -147 0
-146 -148 0
-146 -149 0
-146 -150 0
-147 -148 0
-147 -149 0
-147 -150 0
-148 -149 0
-148 -150 0
-149 -150 0
-151 -154 0
-151 -155 0
-154 -155 0
-157 -158 0
-157 -159 0
-157 -160 0
-158 -159 0
-158 -160 0
-159 -160 0
-161 -163 0
-161 -164 0
-161 -165 0
-163 -164 0
-163 -165 0
-164 -165 0
-166 -167 0
-166 -168 0
-166 -169 0
-166 -170 0
-167 -168 0
-167 -169 0
-167 -170 0
-168 -169 0
-168 -170 0
-169 -170 0
-171 -172 0
-171 -173 0
-171 -174 0
-171 -175 0
-172 -173 0
-172 -174 0
-172 -175 0
-173 -174 0
-173 -175 0
-174 -175 0
-176 -179 0
-176 -180 0
-179 -180 0
-181 -182 0
-181 -183 0
-181 -184 0
-181 -185 0
-182 -183 0
-182 -184 0
-182 -185 0
-183 -184 0
-183 -185 0
-184 -185 0
-186 -187 0
-186 -189 0
-186 -190 0
-187 -189 0
-187 -190 0
-189 -190 0
-191 -192 0
-191 -193 0
-191 -194 0
-191 -195 0
-192 -193 0
-192 -194 0
-192 -195 0
-193 -194 0
-193 -195 0
-194 -195 0
-196 -197 0
-196 -198 0
-196 -199 0
-196 -200 0
-197 -198 0
-197 -199 0
-197 -200 0
-198 -199 0
-198 -200 0
-199 -200 0
-202 -203 0
-202 -204 0
-203 -204 0
-206 -207 0
-206 -209 0
-206 -210 0
-207 -209 0
-207 -210 0
-209 -210 0
-211 -212 0
-211 -214 0
-211 -215 0
-212 -214 0
-212 -215 0
-214 -215 0
-216 -217 0
-216 -219 0
-216 -220 0
-217 -219 0
-217 -220 0
-219 -220 0
